1923728
24,11,16,85,63,2,84,52,96,1,26,41,35,92,12,7,88,90,43,54,62,71,55,40,29,76,17,68,61,95,9,19,20,56,8,32,73,36,47,0,31,5,74,48,30,59,69,57,66,4,34,14,15,81,87,72,94,46,3,6,50,28,78,21,91,93,39,86,79,98,67,37,75,44,60,49,82,65,51,13,80,38,83,64,23,89,18,97,70,33,58,53,27,45,22,10,42,25,77
